log             log.UiO-67_4-2_norfentanyl append
units           real
atom_style      full
boundary        p p p

pair_style      lj/cut 12.500
bond_style      harmonic
angle_style     hybrid fourier cosine/periodic
dihedral_style  harmonic
improper_style  fourier

pair_modify     tail yes mix arithmetic
dielectric      1.0
special_bonds   lj/coul 0.0 0.0 1.0
box tilt        large
read_data       data.UiO-67_4-2_norfentanyl

#### Atom Groupings ####
group           1        id   681:980
group           1-1      id   681 685:758
group           1-2      id   682 759:832
group           1-3      id   683 833:906
group           1-4      id   684 907:980
group           fram     id   1:680
#### END Atom Groupings ####

